
  32    1
  10

   0   0   3 2 3 5 
   5   1   5 16 12 8 7 6 
   7   4   2 7 4 
   3   2   5 16 15 11 9 8 
   7   5   4 16 15 10 8 
   8   5   3 11 10 9 
   4   3   3 15 13 10 
   7   3   2 14 13 
   6   5   2 14 13 
   4   3   3 20 19 14 
   7   4   3 20 19 14 
   9   8   3 20 19 14 
  10   4   5 27 24 22 20 19 
   6   8   4 27 24 22 17 
   1   2   4 27 24 22 17 
  10   2   4 27 24 22 18 
   6   4   1 18 
   9   5   2 26 21 
  10   4   2 26 21 
   9   4   3 28 26 25 
   8   2   1 23 
   3   6   1 23 
   6   4   2 28 25 
   2   4   2 28 25 
   1   7   2 30 29 
   4   4   2 30 29 
   9   4   2 30 29 
   4   4   1 31 
   7   3   1 32
   7   3   1 32
   1   3   1 32
   0   0   0 
